c Generated map
c Size: 13 * 13, weights in range: 1 to 10, walls: False, with ratio 0.0
c dim 1 of 3
c
p sp 169 312
c graph contains 169 nodes and 312 arcs
c
a 1 14 9
a 14 1 9
a 1 2 9
a 2 1 9
a 2 15 10
a 15 2 10
a 2 3 8
a 3 2 8
a 3 16 3
a 16 3 3
a 3 4 8
a 4 3 8
a 4 17 6
a 17 4 6
a 4 5 7
a 5 4 7
a 5 18 10
a 18 5 10
a 5 6 1
a 6 5 1
a 6 19 2
a 19 6 2
a 6 7 8
a 7 6 8
a 7 20 7
a 20 7 7
a 7 8 5
a 8 7 5
a 8 21 1
a 21 8 1
a 8 9 8
a 9 8 8
a 9 22 10
a 22 9 10
a 9 10 9
a 10 9 9
a 10 23 10
a 23 10 10
a 10 11 1
a 11 10 1
a 11 24 9
a 24 11 9
a 11 12 6
a 12 11 6
a 12 25 1
a 25 12 1
a 12 13 5
a 13 12 5
a 13 26 2
a 26 13 2
a 14 27 9
a 27 14 9
a 14 15 6
a 15 14 6
a 15 28 2
a 28 15 2
a 15 16 4
a 16 15 4
a 16 29 10
a 29 16 10
a 16 17 6
a 17 16 6
a 17 30 1
a 30 17 1
a 17 18 2
a 18 17 2
a 18 31 3
a 31 18 3
a 18 19 8
a 19 18 8
a 19 32 4
a 32 19 4
a 19 20 3
a 20 19 3
a 20 33 5
a 33 20 5
a 20 21 6
a 21 20 6
a 21 34 4
a 34 21 4
a 21 22 1
a 22 21 1
a 22 35 4
a 35 22 4
a 22 23 8
a 23 22 8
a 23 36 8
a 36 23 8
a 23 24 4
a 24 23 4
a 24 37 6
a 37 24 6
a 24 25 9
a 25 24 9
a 25 38 5
a 38 25 5
a 25 26 6
a 26 25 6
a 26 39 3
a 39 26 3
a 27 40 7
a 40 27 7
a 27 28 7
a 28 27 7
a 28 41 10
a 41 28 10
a 28 29 7
a 29 28 7
a 29 42 10
a 42 29 10
a 29 30 4
a 30 29 4
a 30 43 1
a 43 30 1
a 30 31 5
a 31 30 5
a 31 44 2
a 44 31 2
a 31 32 6
a 32 31 6
a 32 45 9
a 45 32 9
a 32 33 4
a 33 32 4
a 33 46 6
a 46 33 6
a 33 34 6
a 34 33 6
a 34 47 9
a 47 34 9
a 34 35 9
a 35 34 9
a 35 48 1
a 48 35 1
a 35 36 7
a 36 35 7
a 36 49 1
a 49 36 1
a 36 37 5
a 37 36 5
a 37 50 10
a 50 37 10
a 37 38 2
a 38 37 2
a 38 51 10
a 51 38 10
a 38 39 6
a 39 38 6
a 39 52 6
a 52 39 6
a 40 53 1
a 53 40 1
a 40 41 1
a 41 40 1
a 41 54 2
a 54 41 2
a 41 42 10
a 42 41 10
a 42 55 3
a 55 42 3
a 42 43 3
a 43 42 3
a 43 56 3
a 56 43 3
a 43 44 3
a 44 43 3
a 44 57 10
a 57 44 10
a 44 45 7
a 45 44 7
a 45 58 7
a 58 45 7
a 45 46 9
a 46 45 9
a 46 59 1
a 59 46 1
a 46 47 4
a 47 46 4
a 47 60 1
a 60 47 1
a 47 48 8
a 48 47 8
a 48 61 5
a 61 48 5
a 48 49 10
a 49 48 10
a 49 62 8
a 62 49 8
a 49 50 3
a 50 49 3
a 50 63 2
a 63 50 2
a 50 51 10
a 51 50 10
a 51 64 7
a 64 51 7
a 51 52 9
a 52 51 9
a 52 65 9
a 65 52 9
a 53 66 9
a 66 53 9
a 53 54 10
a 54 53 10
a 54 67 4
a 67 54 4
a 54 55 7
a 55 54 7
a 55 68 5
a 68 55 5
a 55 56 5
a 56 55 5
a 56 69 4
a 69 56 4
a 56 57 5
a 57 56 5
a 57 70 8
a 70 57 8
a 57 58 2
a 58 57 2
a 58 71 8
a 71 58 8
a 58 59 2
a 59 58 2
a 59 72 7
a 72 59 7
a 59 60 3
a 60 59 3
a 60 73 8
a 73 60 8
a 60 61 6
a 61 60 6
a 61 74 9
a 74 61 9
a 61 62 3
a 62 61 3
a 62 75 4
a 75 62 4
a 62 63 2
a 63 62 2
a 63 76 10
a 76 63 10
a 63 64 4
a 64 63 4
a 64 77 7
a 77 64 7
a 64 65 5
a 65 64 5
a 65 78 3
a 78 65 3
a 66 79 9
a 79 66 9
a 66 67 1
a 67 66 1
a 67 80 7
a 80 67 7
a 67 68 4
a 68 67 4
a 68 81 9
a 81 68 9
a 68 69 1
a 69 68 1
a 69 82 2
a 82 69 2
a 69 70 7
a 70 69 7
a 70 83 1
a 83 70 1
a 70 71 9
a 71 70 9
a 71 84 1
a 84 71 1
a 71 72 1
a 72 71 1
a 72 85 9
a 85 72 9
a 72 73 3
a 73 72 3
a 73 86 6
a 86 73 6
a 73 74 6
a 74 73 6
a 74 87 1
a 87 74 1
a 74 75 7
a 75 74 7
a 75 88 6
a 88 75 6
a 75 76 6
a 76 75 6
a 76 89 7
a 89 76 7
a 76 77 10
a 77 76 10
a 77 90 10
a 90 77 10
a 77 78 7
a 78 77 7
a 78 91 5
a 91 78 5
a 79 92 10
a 92 79 10
a 79 80 1
a 80 79 1
a 80 93 3
a 93 80 3
a 80 81 10
a 81 80 10
a 81 94 10
a 94 81 10
a 81 82 9
a 82 81 9
a 82 95 8
a 95 82 8
a 82 83 1
a 83 82 1
a 83 96 5
a 96 83 5
a 83 84 10
a 84 83 10
a 84 97 9
a 97 84 9
a 84 85 4
a 85 84 4
a 85 98 9
a 98 85 9
a 85 86 2
a 86 85 2
a 86 99 1
a 99 86 1
a 86 87 1
a 87 86 1
a 87 100 2
a 100 87 2
a 87 88 5
a 88 87 5
a 88 101 2
a 101 88 2
a 88 89 6
a 89 88 6
a 89 102 7
a 102 89 7
a 89 90 9
a 90 89 9
a 90 103 5
a 103 90 5
a 90 91 2
a 91 90 2
a 91 104 10
a 104 91 10
a 92 105 10
a 105 92 10
a 92 93 6
a 93 92 6
a 93 106 4
a 106 93 4
a 93 94 8
a 94 93 8
a 94 107 4
a 107 94 4
a 94 95 3
a 95 94 3
a 95 108 9
a 108 95 9
a 95 96 4
a 96 95 4
a 96 109 6
a 109 96 6
a 96 97 10
a 97 96 10
a 97 110 2
a 110 97 2
a 97 98 1
a 98 97 1
a 98 111 1
a 111 98 1
a 98 99 7
a 99 98 7
a 99 112 7
a 112 99 7
a 99 100 7
a 100 99 7
a 100 113 8
a 113 100 8
a 100 101 1
a 101 100 1
a 101 114 7
a 114 101 7
a 101 102 10
a 102 101 10
a 102 115 1
a 115 102 1
a 102 103 2
a 103 102 2
a 103 116 4
a 116 103 4
a 103 104 6
a 104 103 6
a 104 117 6
a 117 104 6
a 105 118 8
a 118 105 8
a 105 106 10
a 106 105 10
a 106 119 2
a 119 106 2
a 106 107 8
a 107 106 8
a 107 120 9
a 120 107 9
a 107 108 7
a 108 107 7
a 108 121 9
a 121 108 9
a 108 109 6
a 109 108 6
a 109 122 1
a 122 109 1
a 109 110 1
a 110 109 1
a 110 123 9
a 123 110 9
a 110 111 5
a 111 110 5
a 111 124 1
a 124 111 1
a 111 112 3
a 112 111 3
a 112 125 1
a 125 112 1
a 112 113 5
a 113 112 5
a 113 126 7
a 126 113 7
a 113 114 10
a 114 113 10
a 114 127 3
a 127 114 3
a 114 115 1
a 115 114 1
a 115 128 1
a 128 115 1
a 115 116 3
a 116 115 3
a 116 129 7
a 129 116 7
a 116 117 1
a 117 116 1
a 117 130 6
a 130 117 6
a 118 131 1
a 131 118 1
a 118 119 1
a 119 118 1
a 119 132 6
a 132 119 6
a 119 120 5
a 120 119 5
a 120 133 9
a 133 120 9
a 120 121 10
a 121 120 10
a 121 134 8
a 134 121 8
a 121 122 6
a 122 121 6
a 122 135 3
a 135 122 3
a 122 123 5
a 123 122 5
a 123 136 7
a 136 123 7
a 123 124 8
a 124 123 8
a 124 137 1
a 137 124 1
a 124 125 5
a 125 124 5
a 125 138 1
a 138 125 1
a 125 126 6
a 126 125 6
a 126 139 4
a 139 126 4
a 126 127 9
a 127 126 9
a 127 140 2
a 140 127 2
a 127 128 1
a 128 127 1
a 128 141 10
a 141 128 10
a 128 129 3
a 129 128 3
a 129 142 10
a 142 129 10
a 129 130 3
a 130 129 3
a 130 143 6
a 143 130 6
a 131 144 9
a 144 131 9
a 131 132 6
a 132 131 6
a 132 145 5
a 145 132 5
a 132 133 7
a 133 132 7
a 133 146 3
a 146 133 3
a 133 134 6
a 134 133 6
a 134 147 8
a 147 134 8
a 134 135 10
a 135 134 10
a 135 148 1
a 148 135 1
a 135 136 8
a 136 135 8
a 136 149 5
a 149 136 5
a 136 137 2
a 137 136 2
a 137 150 3
a 150 137 3
a 137 138 5
a 138 137 5
a 138 151 6
a 151 138 6
a 138 139 2
a 139 138 2
a 139 152 3
a 152 139 3
a 139 140 9
a 140 139 9
a 140 153 5
a 153 140 5
a 140 141 10
a 141 140 10
a 141 154 9
a 154 141 9
a 141 142 4
a 142 141 4
a 142 155 7
a 155 142 7
a 142 143 3
a 143 142 3
a 143 156 5
a 156 143 5
a 144 157 7
a 157 144 7
a 144 145 6
a 145 144 6
a 145 158 3
a 158 145 3
a 145 146 7
a 146 145 7
a 146 159 4
a 159 146 4
a 146 147 10
a 147 146 10
a 147 160 8
a 160 147 8
a 147 148 4
a 148 147 4
a 148 161 7
a 161 148 7
a 148 149 3
a 149 148 3
a 149 162 7
a 162 149 7
a 149 150 7
a 150 149 7
a 150 163 5
a 163 150 5
a 150 151 8
a 151 150 8
a 151 164 3
a 164 151 3
a 151 152 10
a 152 151 10
a 152 165 10
a 165 152 10
a 152 153 6
a 153 152 6
a 153 166 9
a 166 153 9
a 153 154 1
a 154 153 1
a 154 167 5
a 167 154 5
a 154 155 3
a 155 154 3
a 155 168 7
a 168 155 7
a 155 156 4
a 156 155 4
a 156 169 3
a 169 156 3
a 157 158 9
a 158 157 9
a 158 159 9
a 159 158 9
a 159 160 4
a 160 159 4
a 160 161 7
a 161 160 7
a 161 162 7
a 162 161 7
a 162 163 4
a 163 162 4
a 163 164 10
a 164 163 10
a 164 165 6
a 165 164 6
a 165 166 8
a 166 165 8
a 166 167 4
a 167 166 4
a 167 168 9
a 168 167 9
a 168 169 9
a 169 168 9
